(set-logic QF_S)
(declare-fun var_0xINPUT_242575 () String)
(assert (and (= (len var_0xINPUT_242575) 0) (= (len var_0xINPUT_242575) 0) (not (= var_0xINPUT_242575 "Example:")) (not (= var_0xINPUT_242575 "4PH2ujcENG"))))
(check-sat var_0xINPUT_242575)